p cnf 27 22
-18 -16 -8 -6 -4 0
1 20 -18 -2 0
3 -20 5 0
17 -12 21 9 11 13 0
19 -14 -21 -10 0
-16 3 22 15 0
-6 -22 5 0
-16 5 23 8 -7 -6 0
-8 24 7 0
-24 -20 -4 0
-24 -22 0
-24 -6 -4 5 0
25 -4 5 -18 0
-19 4 26 -20 -3 15 0
-16 -6 -26 7 0
-7 -5 6 -26 0
-19 -4 -20 -23 0
-22 -6 23 7 0
-22 -19 -25 0
27 -21 -3 15 0
-14 4 -27 -18 -23 -2 0
-16 -27 6 -10 -24 -5 -20 0
